c 178_3_checker_5cl.cnf
c
c field = 178
c formula set type = 3_checker_5cl
c
p cnf 5 20
350 
352 
356 
-359 
-348 
351 
353 
357 
-358 
-349 
352 
356 
358 
-351 
-348 
353 
357 
359 
-350 
-349 
324 
384 
414 
-445 
-294 
325 
385 
415 
-444 
-295 
384 
414 
444 
-325 
-294 
385 
415 
445 
-324 
-295 
290 
322 
386 
-419 
-258 
291 
323 
387 
-418 
-259 
322 
386 
418 
-291 
-258 
323 
387 
419 
-290 
-259 
298 
326 
382 
-411 
-438 
299 
327 
383 
-410 
-439 
326 
382 
410 
-299 
-438 
327 
383 
411 
-298 
-439 
326 
382 
410 
-439 
-298 
327 
383 
411 
-438 
-299 
382 
410 
438 
-327 
-298 
383 
411 
439 
-326 
-299 
